p cnf 15 30
15 14 -9 0
-15 -12 10 0
-15 -10 -3 0
-15 -9 3 0
15 8 3 0
15 7 4 0
-15 5 -3 0
-14 12 -6 0
14 -11 7 0
-14 11 -3 0
-14 -8 -2 0
-13 12 -2 0
13 11 6 0
13 8 6 0
13 -7 -5 0
13 7 1 0
-13 -4 -3 0
12 -8 -5 0
-12 8 -1 0
-12 -5 3 0
-11 10 8 0
11 10 2 0
11 7 -2 0
11 -5 2 0
11 -2 1 0
10 -7 -5 0
-10 -6 5 0
9 6 -2 0
-8 7 -4 0
8 -5 -4 0
